Academic license - for non-commercial use only
Gurobi Optimizer version 9.0.3 build v9.0.3rc0 (mac64)
Optimize a model with 207966 rows, 200800 columns and 1151950 nonzeros
Model fingerprint: 0x6dcd5a60
Variable types: 0 continuous, 200800 integer (200800 binary)
Coefficient statistics:
  Matrix range     [1e+00, 1e+00]
  Objective range  [1e+01, 5e+04]
  Bounds range     [1e+00, 1e+00]
  RHS range        [1e+00, 5e+02]
Presolve added 0 rows and 2950 columns
Presolve removed 50 rows and 0 columns
Presolve time: 3.76s
Presolved: 207916 rows, 203750 columns, 860850 nonzeros
Variable types: 0 continuous, 203750 integer (203750 binary)
Found heuristic solution: objective 751795.00000

Concurrent LP optimizer: dual simplex and barrier
Showing barrier log only...

Root barrier log...

Ordering time: 0.06s

Barrier statistics:
 Dense cols : 400
 AA' NZ     : 6.668e+05
 Factor NZ  : 2.815e+06 (roughly 200 MBytes of memory)
 Factor Ops : 6.809e+08 (less than 1 second per iteration)
 Threads    : 3

                  Objective                Residual
Iter       Primal          Dual         Primal    Dual     Compl     Time
   0   2.14405370e+08 -2.88320316e+08  4.73e+02 3.11e+01  1.65e+04     6s
   1   1.67796566e+06 -3.27182626e+08  8.02e+00 7.97e+03  6.59e+02     6s
   2   9.83111274e+05 -1.24167303e+08  1.95e+00 2.72e+03  2.22e+02     7s
   3   8.80061122e+05 -4.66929021e+07  1.05e+00 9.50e+02  8.27e+01     7s
   4   7.72844404e+05 -7.31935426e+06  9.95e-02 1.27e+02  1.35e+01     7s
   5   7.55116619e+05 -1.04186920e+06  4.72e-02 2.43e+01  2.97e+00     7s
   6   7.36732522e+05  5.00017719e+04  3.27e-02 1.02e+01  1.13e+00     8s
   7   7.25337266e+05  3.19457471e+05  2.82e-02 5.46e+00  6.65e-01     8s
   8   7.13528435e+05  4.41426658e+05  2.45e-02 3.24e+00  4.44e-01     8s
   9   7.06872145e+05  5.02498975e+05  2.24e-02 2.10e+00  3.33e-01     8s
  10   7.00413570e+05  5.40845052e+05  2.08e-02 1.39e+00  2.59e-01     8s
  11   6.87853606e+05  5.65624912e+05  1.74e-02 9.21e-01  1.98e-01     9s
  12   6.77990879e+05  5.77442282e+05  1.49e-02 7.10e-01  1.63e-01     9s
  13   6.71825809e+05  5.87782310e+05  1.34e-02 5.33e-01  1.36e-01     9s
  14   6.65505489e+05  5.95267224e+05  1.18e-02 4.02e-01  1.14e-01    10s
  15   6.63241926e+05  5.99743186e+05  1.12e-02 3.25e-01  1.03e-01    10s
  16   6.50833808e+05  6.03353097e+05  8.19e-03 2.57e-01  7.67e-02    10s
  17   6.47822237e+05  6.06138102e+05  7.53e-03 2.06e-01  6.73e-02    10s
  18   6.44239667e+05  6.08558465e+05  6.68e-03 1.61e-01  5.75e-02    11s
  19   6.39369997e+05  6.10337184e+05  5.44e-03 1.29e-01  4.68e-02    11s
  20   6.36745389e+05  6.11621109e+05  4.80e-03 1.07e-01  4.05e-02    11s
  21   6.33855008e+05  6.12688496e+05  4.08e-03 8.88e-02  3.41e-02    11s
  22   6.31442512e+05  6.13474269e+05  3.51e-03 7.56e-02  2.89e-02    12s
  23   6.29434092e+05  6.14109280e+05  2.99e-03 6.47e-02  2.47e-02    12s
  24   6.28357831e+05  6.14688575e+05  2.70e-03 5.50e-02  2.20e-02    12s
  25   6.26259139e+05  6.14961531e+05  2.17e-03 5.03e-02  1.82e-02    13s
  26   6.25114368e+05  6.15354343e+05  1.88e-03 4.43e-02  1.57e-02    13s
  27   6.24628873e+05  6.15667030e+05  1.75e-03 3.92e-02  1.44e-02    13s
  28   6.23510141e+05  6.15890440e+05  1.45e-03 3.55e-02  1.23e-02    13s
  29   6.22759971e+05  6.16101234e+05  1.26e-03 3.23e-02  1.07e-02    14s
  30   6.22447476e+05  6.16389876e+05  1.18e-03 2.76e-02  9.76e-03    14s
  31   6.22001118e+05  6.16545821e+05  1.07e-03 2.51e-02  8.79e-03    14s
  32   6.21885819e+05  6.16606084e+05  1.04e-03 2.41e-02  8.51e-03    14s
  33   6.21607999e+05  6.16820832e+05  9.66e-04 2.04e-02  7.71e-03    15s
  34   6.21114114e+05  6.16894782e+05  8.34e-04 1.92e-02  6.80e-03    15s
  35   6.20843155e+05  6.17019632e+05  7.63e-04 1.71e-02  6.16e-03    15s
  36   6.20763233e+05  6.17053981e+05  7.43e-04 1.65e-02  5.97e-03    16s
  37   6.20524345e+05  6.17135280e+05  6.80e-04 1.52e-02  5.46e-03    16s
  38   6.20222674e+05  6.17199236e+05  5.99e-04 1.41e-02  4.87e-03    16s
  39   6.19879869e+05  6.17298789e+05  5.06e-04 1.24e-02  4.16e-03    16s
  40   6.19803236e+05  6.17316323e+05  4.86e-04 1.20e-02  4.01e-03    17s
  41   6.19719336e+05  6.17345718e+05  4.63e-04 1.15e-02  3.82e-03    17s
  42   6.19538640e+05  6.17421125e+05  4.15e-04 1.02e-02  3.41e-03    17s
  43   6.19414628e+05  6.17463553e+05  3.83e-04 9.42e-03  3.14e-03    17s
  44   6.19291783e+05  6.17496906e+05  3.51e-04 8.88e-03  2.89e-03    18s
  45   6.19205979e+05  6.17555832e+05  3.28e-04 7.79e-03  2.66e-03    18s
  46   6.19081986e+05  6.17624968e+05  2.95e-04 6.51e-03  2.35e-03    18s
  47   6.18968100e+05  6.17663421e+05  2.66e-04 5.82e-03  2.10e-03    19s
  48   6.18896005e+05  6.17689654e+05  2.46e-04 5.37e-03  1.94e-03    19s
  49   6.18814096e+05  6.17717815e+05  2.25e-04 4.90e-03  1.76e-03    19s
  50   6.18768285e+05  6.17736875e+05  2.13e-04 4.54e-03  1.66e-03    19s
  51   6.18702991e+05  6.17759802e+05  1.96e-04 4.14e-03  1.52e-03    20s
  52   6.18647664e+05  6.17773005e+05  1.81e-04 3.91e-03  1.41e-03    20s
  53   6.18595387e+05  6.17789896e+05  1.67e-04 3.62e-03  1.30e-03    20s
  54   6.18556613e+05  6.17805004e+05  1.57e-04 3.36e-03  1.21e-03    20s
  55   6.18540654e+05  6.17813876e+05  1.52e-04 3.20e-03  1.17e-03    21s
  56   6.18526168e+05  6.17818176e+05  1.48e-04 3.12e-03  1.14e-03    21s
  57   6.18496289e+05  6.17835186e+05  1.40e-04 2.83e-03  1.06e-03    21s
  58   6.18436537e+05  6.17842559e+05  1.24e-04 2.71e-03  9.56e-04    21s
  59   6.18391956e+05  6.17854001e+05  1.11e-04 2.51e-03  8.66e-04    22s
  60   6.18351725e+05  6.17862313e+05  9.98e-05 2.36e-03  7.88e-04    22s
  61   6.18329735e+05  6.17882345e+05  9.33e-05 2.03e-03  7.20e-04    22s
  62   6.18293577e+05  6.17893988e+05  8.32e-05 1.83e-03  6.43e-04    22s
  63   6.18269108e+05  6.17903189e+05  7.63e-05 1.67e-03  5.89e-04    22s
  64   6.18263963e+05  6.17907125e+05  7.49e-05 1.61e-03  5.74e-04    23s
  65   6.18249163e+05  6.17914471e+05  7.07e-05 1.47e-03  5.38e-04    23s
  66   6.18214620e+05  6.17919056e+05  6.13e-05 1.38e-03  4.76e-04    23s
  67   6.18182869e+05  6.17933944e+05  5.26e-05 1.06e-03  4.00e-04    23s
  68   6.18170810e+05  6.17940854e+05  4.92e-05 9.50e-04  3.70e-04    24s
  69   6.18161906e+05  6.17941783e+05  4.67e-05 9.33e-04  3.54e-04    24s
  70   6.18138086e+05  6.17947811e+05  4.00e-05 8.27e-04  3.06e-04    24s
  71   6.18115984e+05  6.17951962e+05  3.37e-05 7.54e-04  2.64e-04    24s
  72   6.18102526e+05  6.17956618e+05  2.99e-05 6.77e-04  2.35e-04    25s
  73   6.18086651e+05  6.17961834e+05  2.53e-05 5.83e-04  2.01e-04    25s
  74   6.18079741e+05  6.17964315e+05  2.33e-05 5.42e-04  1.86e-04    25s
  75   6.18067432e+05  6.17970235e+05  1.98e-05 4.38e-04  1.56e-04    25s
  76   6.18052343e+05  6.17974438e+05  1.56e-05 3.65e-04  1.25e-04    26s
  77   6.18044416e+05  6.17978810e+05  1.34e-05 2.90e-04  1.06e-04    26s
  78   6.18037699e+05  6.17980526e+05  1.15e-05 2.62e-04  9.21e-05    26s
  79   6.18033954e+05  6.17982611e+05  1.05e-05 2.26e-04  8.27e-05    26s
  80   6.18023906e+05  6.17984666e+05  7.67e-06 1.92e-04  6.32e-05    26s
  81   6.18018993e+05  6.17991458e+05  6.36e-06 7.90e-05  4.42e-05    27s
  82   6.18005108e+05  6.17994101e+05  2.47e-06 3.35e-05  1.77e-05    27s
  83   6.17996686e+05  6.17996044e+05  9.81e-08 2.23e-07  1.04e-06    27s
  84   6.17996192e+05  6.17996192e+05  2.23e-10 2.00e-08  1.05e-09    27s

Barrier solved model in 84 iterations and 27.33 seconds
Optimal objective 6.17996192e+05


Root crossover log...

  131522 DPushes remaining with DInf 7.7396171e-05                27s
       0 DPushes remaining with DInf 0.0000000e+00                28s

     615 PPushes remaining with PInf 0.0000000e+00                28s
       0 PPushes remaining with PInf 0.0000000e+00                28s

  Push phase complete: Pinf 0.0000000e+00, Dinf 1.9826984e-10     28s


Root simplex log...

Iteration    Objective       Primal Inf.    Dual Inf.      Time
   17964    6.1799619e+05   0.000000e+00   0.000000e+00     28s

Solved with barrier

Root relaxation: objective 6.179962e+05, 17964 iterations, 22.59 seconds

    Nodes    |    Current Node    |     Objective Bounds      |     Work
 Expl Unexpl |  Obj  Depth IntInf | Incumbent    BestBd   Gap | It/Node Time

     0     0 617996.192    0 6689 751795.000 617996.192  17.8%     -   30s
H    0     0                    618996.00000 617996.192  0.16%     -   33s
H    0     0                    618087.00000 617996.192  0.01%     -   46s
     0     0 618003.903    0 6716 618087.000 618003.903  0.01%     -   59s
     0     0 618003.903    0 5841 618087.000 618003.903  0.01%     -   64s
     0     0 618010.136    0 5865 618087.000 618010.136  0.01%     -   68s
     0     0 618010.136    0 5865 618087.000 618010.136  0.01%     -   69s
H    0     0                    618086.00000 618074.489  0.00%     -   71s
     0     0 618074.489    0 5884 618086.000 618074.489  0.00%     -   71s

Cutting planes:
  Gomory: 3
  Clique: 9
  Zero half: 94
  RLT: 9

Explored 1 nodes (23488 simplex iterations) in 71.18 seconds
Thread count was 8 (of 8 available processors)

Solution count 5: 618086 618087 618087 ... 751795

Optimal solution found (tolerance 1.00e-04)
Best objective 6.180860000000e+05, best bound 6.180744886364e+05, gap 0.0019%

User-callback calls 11641, time in user-callback 0.11 sec
Solution written to /Users/mdeboute/Desktop/Etudes/Master/M2/S9/GOPP/Projet/multi-period-flp/solution/instMulti_I50_J500_T8_0_result.txt
